29 29
24
3 3 17 0
3 4 7 0
3 5 14 8
3 6 14 23
3 7 7 4
3 8 14 0
3 9 0 0
3 10 14 13
3 11 17 3
3 15 17 14
3 18 7 11
3 20 4 9
4 3 10 0
4 4 10 3
4 5 20 24
4 6 20 18
4 7 10 22
4 9 3 0
4 15 10 7
4 18 20 0
4 20 0 9
5 4 24 25
5 8 24 0
5 17 24 8
